************************************************************************
file with basedata            : mm55_.bas
initial value random generator: 1089052379
************************************************************************
projects                      :  1
jobs (incl. supersource/sink ):  12
horizon                       :  77
RESOURCES
  - renewable                 :  2   R
  - nonrenewable              :  2   N
  - doubly constrained        :  0   D
************************************************************************
PROJECT INFORMATION:
pronr.  #jobs rel.date duedate tardcost  MPM-Time
    1     10      0       13        7       13
************************************************************************
PRECEDENCE RELATIONS:
jobnr.    #modes  #successors   successors
   0        1          3           1   2   3
   1        3          1           4
   2        3          2           6   7
   3        3          3           4   5  10
   4        3          1           9
   5        3          1           8
   6        3          2           8  10
   7        3          2           8   9
   8        3          1          11
   9        3          1          11
  10        3          1          11
  11        1          0        
************************************************************************
REQUESTS/DURATIONS:
jobnr. mode duration  R 1  R 2  R 3  R 4  E(W 1)
------------------------------------------------------------------------
  0      1     0       0    0    0    0     0
  1      1     9       5    9    4    6    216
  2      1     1       7    6    9   10    32
  3      1     1       4    4    9   10    27
  4      1     3       8    6    2    3    57
  5      1     1       4    6    7    8    25
  6      1     1       9    4    2    9    24
  7      1     2       8    4    6    5    46
  8      1     3       4    6    3    8    63
  9      1     1       8    8    7    6    29
 10      1     4       8    2    6    5    84
 11      1     0       0    0    0    0     0
************************************************************************
RESOURCEAVAILABILITIES:
  R 1
   151
************************************************************************
RESOURCE LIMITS:
jobnr.  l(R 1)  u(R 1)
------------------------------------------------------------------------
  0        0       0
  1       13      24
  2       17      32
  3       14      27
  4       10      19
  5       13      25
  6       13      24
  7       12      23
  8       11      21
  9       15      29
 10       11      21
 11        0       0
************************************************************************
SCENARIOS:
------------------------------------------------------------------------
RESOURCE k = 1
s = 1: (0, 263, 35, 20, 55, 20, 18, 28, 73, 19, 59, 0)
s = 2: (0, 182, 47, 34, 57, 31, 21, 68, 94, 31, 79, 0)
s = 3: (0, 201, 24, 24, 49, 34, 40, 37, 68, 26, 89, 0)
s = 4: (0, 256, 33, 35, 61, 20, 20, 38, 56, 36, 111, 0)
s = 5: (0, 163, 30, 18, 81, 33, 19, 37, 70, 23, 90, 0)
s = 6: (0, 198, 23, 19, 38, 21, 16, 51, 59, 29, 78, 0)
s = 7: (0, 234, 28, 29, 63, 20, 15, 33, 41, 24, 60, 0)
s = 8: (0, 217, 32, 25, 76, 43, 19, 40, 37, 30, 62, 0)
s = 9: (0, 408, 33, 26, 41, 34, 17, 36, 104, 42, 85, 0)
s = 10: (0, 213, 31, 19, 75, 38, 21, 49, 92, 19, 84, 0)
s = 11: (0, 243, 24, 32, 47, 22, 21, 46, 51, 20, 89, 0)
s = 12: (0, 153, 29, 36, 60, 18, 30, 56, 62, 22, 49, 0)
s = 13: (0, 203, 30, 21, 62, 28, 20, 30, 78, 29, 107, 0)
s = 14: (0, 139, 26, 33, 38, 26, 34, 49, 48, 22, 114, 0)
s = 15: (0, 221, 23, 31, 44, 27, 25, 43, 72, 20, 96, 0)
s = 16: (0, 164, 34, 27, 76, 34, 42, 61, 77, 21, 66, 0)
s = 17: (0, 308, 24, 27, 40, 46, 21, 33, 57, 35, 48, 0)
s = 18: (0, 227, 35, 21, 69, 32, 32, 55, 81, 20, 53, 0)
s = 19: (0, 271, 32, 30, 58, 30, 26, 36, 76, 24, 69, 0)
s = 20: (0, 172, 24, 23, 78, 26, 13, 45, 72, 25, 81, 0)
s = 21: (0, 342, 41, 29, 43, 23, 19, 44, 57, 19, 64, 0)
s = 22: (0, 119, 21, 36, 54, 29, 22, 39, 44, 19, 101, 0)
s = 23: (0, 202, 28, 15, 77, 31, 28, 38, 62, 23, 66, 0)
s = 24: (0, 172, 37, 21, 77, 26, 20, 44, 81, 18, 89, 0)
s = 25: (0, 289, 24, 31, 62, 21, 17, 28, 61, 47, 86, 0)
s = 26: (0, 199, 37, 25, 54, 22, 21, 62, 86, 19, 78, 0)
s = 27: (0, 165, 32, 30, 60, 25, 16, 32, 65, 31, 59, 0)
s = 28: (0, 182, 21, 23, 53, 18, 33, 53, 36, 47, 78, 0)
s = 29: (0, 254, 37, 35, 39, 26, 23, 48, 62, 23, 88, 0)
s = 30: (0, 123, 36, 33, 98, 18, 24, 47, 56, 27, 140, 0)
s = 31: (0, 132, 40, 21, 46, 16, 33, 37, 47, 55, 82, 0)
s = 32: (0, 274, 35, 36, 39, 31, 21, 32, 68, 23, 70, 0)
s = 33: (0, 226, 27, 42, 82, 18, 35, 88, 59, 22, 91, 0)
s = 34: (0, 113, 44, 17, 45, 21, 19, 46, 39, 28, 70, 0)
s = 35: (0, 266, 57, 23, 49, 36, 26, 41, 67, 19, 48, 0)
s = 36: (0, 118, 44, 30, 56, 14, 16, 37, 63, 25, 97, 0)
s = 37: (0, 172, 22, 36, 81, 38, 29, 58, 71, 21, 61, 0)
s = 38: (0, 155, 39, 21, 103, 24, 25, 44, 86, 43, 97, 0)
s = 39: (0, 367, 39, 37, 60, 18, 39, 26, 44, 31, 91, 0)
s = 40: (0, 202, 30, 18, 62, 25, 18, 61, 44, 17, 73, 0)
s = 41: (0, 173, 29, 36, 34, 32, 21, 60, 42, 39, 103, 0)
s = 42: (0, 168, 44, 21, 61, 16, 21, 79, 52, 33, 107, 0)
s = 43: (0, 193, 22, 19, 72, 26, 15, 76, 55, 25, 47, 0)
s = 44: (0, 243, 48, 36, 40, 23, 26, 40, 91, 25, 73, 0)
s = 45: (0, 231, 36, 24, 45, 20, 22, 54, 72, 34, 72, 0)
s = 46: (0, 123, 21, 21, 45, 22, 16, 32, 42, 23, 51, 0)
s = 47: (0, 156, 46, 32, 54, 20, 26, 58, 58, 32, 90, 0)
s = 48: (0, 169, 28, 36, 47, 18, 22, 39, 45, 38, 99, 0)
s = 49: (0, 195, 50, 29, 62, 17, 17, 31, 51, 22, 157, 0)
s = 50: (0, 191, 39, 18, 55, 32, 24, 46, 36, 28, 59, 0)
s = 51: (0, 197, 33, 22, 63, 23, 21, 54, 75, 34, 90, 0)
s = 52: (0, 161, 42, 16, 74, 21, 21, 57, 44, 41, 67, 0)
s = 53: (0, 157, 49, 15, 46, 17, 14, 34, 64, 23, 127, 0)
s = 54: (0, 235, 25, 28, 100, 23, 23, 57, 93, 27, 81, 0)
s = 55: (0, 144, 26, 25, 80, 38, 34, 43, 62, 42, 118, 0)
s = 56: (0, 157, 36, 19, 55, 46, 17, 74, 49, 31, 67, 0)
s = 57: (0, 159, 33, 36, 62, 31, 21, 48, 33, 25, 106, 0)
s = 58: (0, 281, 45, 22, 96, 16, 23, 71, 57, 30, 90, 0)
s = 59: (0, 157, 27, 42, 68, 22, 17, 65, 66, 17, 110, 0)
s = 60: (0, 204, 40, 25, 86, 16, 26, 46, 59, 20, 90, 0)
s = 61: (0, 194, 26, 30, 57, 28, 25, 33, 43, 37, 48, 0)
s = 62: (0, 236, 30, 19, 66, 33, 32, 43, 44, 27, 93, 0)
s = 63: (0, 203, 50, 41, 42, 33, 20, 45, 72, 18, 61, 0)
s = 64: (0, 366, 27, 17, 78, 33, 37, 60, 91, 38, 76, 0)
s = 65: (0, 225, 23, 47, 41, 31, 13, 38, 65, 18, 68, 0)
s = 66: (0, 210, 39, 20, 87, 20, 24, 68, 44, 31, 111, 0)
s = 67: (0, 242, 31, 32, 60, 22, 25, 44, 48, 34, 86, 0)
s = 68: (0, 125, 37, 27, 44, 36, 17, 37, 52, 29, 92, 0)
s = 69: (0, 351, 25, 17, 68, 29, 33, 43, 102, 22, 101, 0)
s = 70: (0, 305, 36, 37, 39, 26, 18, 65, 53, 30, 66, 0)
s = 71: (0, 198, 41, 32, 61, 17, 18, 46, 42, 32, 118, 0)
s = 72: (0, 255, 31, 21, 55, 31, 41, 63, 55, 29, 89, 0)
s = 73: (0, 168, 32, 38, 56, 19, 24, 54, 57, 28, 51, 0)
s = 74: (0, 225, 32, 29, 61, 32, 36, 38, 74, 34, 57, 0)
s = 75: (0, 205, 18, 33, 96, 18, 24, 42, 69, 24, 56, 0)
s = 76: (0, 216, 25, 20, 63, 33, 25, 36, 32, 31, 125, 0)
s = 77: (0, 195, 45, 31, 55, 34, 28, 53, 64, 34, 130, 0)
s = 78: (0, 138, 56, 19, 37, 17, 20, 41, 74, 34, 55, 0)
s = 79: (0, 223, 25, 30, 71, 30, 31, 58, 81, 29, 92, 0)
s = 80: (0, 162, 22, 32, 45, 31, 21, 33, 54, 40, 70, 0)
s = 81: (0, 138, 39, 16, 54, 16, 17, 51, 71, 38, 138, 0)
s = 82: (0, 194, 33, 29, 46, 30, 28, 37, 54, 28, 104, 0)
s = 83: (0, 233, 35, 39, 33, 34, 41, 80, 44, 35, 64, 0)
s = 84: (0, 200, 34, 43, 50, 32, 21, 49, 103, 31, 131, 0)
s = 85: (0, 134, 29, 20, 56, 28, 28, 42, 75, 44, 128, 0)
s = 86: (0, 136, 26, 18, 83, 25, 23, 34, 46, 42, 93, 0)
s = 87: (0, 202, 26, 31, 34, 31, 24, 40, 96, 26, 103, 0)
s = 88: (0, 369, 20, 20, 34, 16, 24, 73, 49, 22, 58, 0)
s = 89: (0, 133, 34, 21, 80, 18, 16, 69, 96, 18, 109, 0)
s = 90: (0, 168, 37, 27, 65, 31, 29, 59, 74, 24, 109, 0)
s = 91: (0, 255, 23, 41, 90, 14, 18, 55, 55, 21, 101, 0)
s = 92: (0, 237, 41, 20, 54, 19, 40, 37, 69, 29, 55, 0)
s = 93: (0, 172, 19, 35, 38, 33, 28, 38, 65, 41, 63, 0)
s = 94: (0, 344, 34, 18, 43, 37, 23, 30, 84, 18, 91, 0)
s = 95: (0, 322, 33, 20, 50, 31, 17, 59, 80, 29, 81, 0)
s = 96: (0, 157, 28, 19, 41, 24, 37, 52, 81, 47, 62, 0)
s = 97: (0, 230, 25, 29, 70, 23, 33, 59, 32, 21, 60, 0)
s = 98: (0, 320, 22, 17, 74, 35, 15, 38, 90, 20, 76, 0)
s = 99: (0, 274, 25, 31, 90, 24, 32, 37, 63, 29, 113, 0)
s = 100: (0, 354, 29, 37, 65, 29, 27, 48, 45, 23, 103, 0)
s = 101: (0, 159, 34, 21, 69, 18, 16, 39, 60, 35, 67, 0)
s = 102: (0, 214, 26, 18, 66, 21, 28, 70, 85, 18, 103, 0)
s = 103: (0, 261, 36, 30, 41, 36, 25, 44, 37, 34, 99, 0)
s = 104: (0, 211, 45, 32, 81, 22, 30, 70, 67, 24, 80, 0)
s = 105: (0, 178, 29, 17, 67, 36, 29, 44, 77, 19, 118, 0)
s = 106: (0, 142, 28, 25, 79, 25, 36, 79, 51, 47, 85, 0)
s = 107: (0, 217, 22, 17, 55, 15, 35, 58, 37, 37, 72, 0)
s = 108: (0, 238, 40, 29, 60, 26, 18, 45, 43, 16, 91, 0)
s = 109: (0, 180, 35, 16, 75, 21, 31, 69, 46, 28, 68, 0)
s = 110: (0, 162, 32, 35, 38, 26, 15, 38, 69, 28, 90, 0)
s = 111: (0, 187, 19, 35, 60, 22, 29, 41, 65, 27, 81, 0)
s = 112: (0, 135, 43, 37, 48, 29, 40, 59, 109, 27, 74, 0)
s = 113: (0, 268, 29, 30, 67, 18, 26, 43, 77, 27, 102, 0)
s = 114: (0, 157, 30, 17, 65, 21, 18, 51, 56, 21, 115, 0)
s = 115: (0, 195, 46, 33, 77, 15, 31, 44, 64, 24, 100, 0)
s = 116: (0, 138, 19, 24, 78, 27, 43, 28, 75, 23, 80, 0)
s = 117: (0, 154, 30, 24, 93, 18, 23, 43, 54, 25, 52, 0)
s = 118: (0, 237, 33, 44, 59, 25, 24, 76, 35, 39, 102, 0)
s = 119: (0, 205, 33, 20, 51, 16, 14, 61, 54, 33, 103, 0)
s = 120: (0, 162, 29, 23, 44, 35, 25, 34, 86, 30, 100, 0)
s = 121: (0, 179, 33, 31, 60, 19, 17, 33, 55, 18, 70, 0)
s = 122: (0, 358, 32, 24, 37, 30, 30, 31, 64, 49, 128, 0)
s = 123: (0, 148, 31, 23, 60, 29, 33, 47, 36, 47, 93, 0)
s = 124: (0, 226, 21, 25, 71, 37, 21, 34, 45, 36, 111, 0)
s = 125: (0, 207, 25, 36, 58, 17, 38, 32, 80, 42, 75, 0)
s = 126: (0, 173, 35, 27, 44, 23, 20, 35, 72, 28, 71, 0)
s = 127: (0, 196, 41, 33, 56, 30, 35, 44, 53, 37, 103, 0)
s = 128: (0, 146, 28, 23, 57, 28, 32, 47, 46, 38, 88, 0)
s = 129: (0, 185, 31, 18, 33, 17, 29, 57, 54, 39, 86, 0)
s = 130: (0, 152, 55, 42, 57, 26, 28, 64, 83, 35, 99, 0)
s = 131: (0, 212, 41, 20, 54, 34, 22, 44, 47, 27, 106, 0)
s = 132: (0, 288, 20, 17, 55, 26, 28, 73, 60, 27, 82, 0)
s = 133: (0, 177, 41, 32, 64, 19, 29, 56, 94, 22, 76, 0)
s = 134: (0, 151, 30, 19, 44, 21, 21, 42, 57, 38, 66, 0)
s = 135: (0, 173, 51, 25, 51, 34, 26, 32, 53, 32, 68, 0)
s = 136: (0, 206, 42, 26, 39, 37, 24, 46, 71, 23, 81, 0)
s = 137: (0, 189, 45, 15, 54, 25, 17, 45, 39, 28, 122, 0)
s = 138: (0, 224, 18, 41, 75, 19, 23, 42, 49, 45, 63, 0)
s = 139: (0, 191, 30, 32, 76, 25, 22, 88, 71, 18, 76, 0)
s = 140: (0, 182, 20, 24, 74, 15, 14, 48, 53, 27, 101, 0)
s = 141: (0, 257, 28, 32, 88, 16, 22, 39, 46, 40, 80, 0)
s = 142: (0, 231, 22, 16, 83, 25, 29, 27, 61, 30, 87, 0)
s = 143: (0, 313, 24, 22, 37, 29, 20, 31, 68, 23, 77, 0)
s = 144: (0, 150, 34, 34, 110, 35, 26, 61, 71, 15, 45, 0)
s = 145: (0, 177, 38, 18, 51, 39, 25, 44, 88, 22, 125, 0)
s = 146: (0, 184, 39, 37, 58, 15, 19, 33, 38, 36, 82, 0)
s = 147: (0, 211, 30, 27, 86, 22, 25, 41, 82, 20, 76, 0)
s = 148: (0, 320, 49, 28, 42, 25, 34, 71, 64, 30, 104, 0)
s = 149: (0, 227, 31, 17, 57, 20, 28, 56, 50, 35, 78, 0)
s = 150: (0, 343, 21, 20, 58, 17, 16, 51, 62, 18, 74, 0)
s = 151: (0, 136, 34, 24, 34, 29, 26, 59, 50, 28, 68, 0)
s = 152: (0, 245, 29, 32, 57, 23, 33, 36, 59, 28, 53, 0)
s = 153: (0, 167, 31, 27, 88, 18, 17, 31, 86, 26, 97, 0)
s = 154: (0, 155, 25, 28, 49, 27, 23, 29, 60, 31, 84, 0)
s = 155: (0, 162, 25, 27, 74, 43, 23, 50, 37, 30, 56, 0)
s = 156: (0, 370, 26, 23, 63, 16, 22, 50, 43, 18, 76, 0)
s = 157: (0, 122, 22, 17, 45, 26, 31, 61, 74, 27, 49, 0)
s = 158: (0, 234, 23, 36, 78, 22, 34, 41, 85, 22, 67, 0)
s = 159: (0, 214, 38, 19, 102, 31, 18, 38, 42, 38, 56, 0)
s = 160: (0, 246, 21, 21, 69, 26, 17, 60, 81, 49, 93, 0)
s = 161: (0, 244, 24, 34, 35, 27, 38, 39, 54, 17, 56, 0)
s = 162: (0, 249, 40, 15, 41, 28, 28, 28, 39, 35, 128, 0)
s = 163: (0, 236, 23, 19, 49, 28, 25, 54, 42, 36, 86, 0)
s = 164: (0, 157, 35, 25, 79, 23, 15, 52, 71, 24, 54, 0)
s = 165: (0, 323, 38, 42, 57, 29, 29, 48, 36, 25, 83, 0)
s = 166: (0, 197, 35, 37, 58, 26, 17, 41, 48, 28, 79, 0)
s = 167: (0, 272, 28, 19, 42, 35, 22, 67, 63, 26, 74, 0)
s = 168: (0, 283, 30, 39, 51, 40, 21, 51, 79, 24, 100, 0)
s = 169: (0, 191, 32, 18, 52, 31, 26, 58, 47, 37, 134, 0)
s = 170: (0, 249, 26, 36, 66, 21, 32, 54, 56, 32, 70, 0)
s = 171: (0, 137, 36, 24, 49, 20, 23, 37, 34, 25, 75, 0)
s = 172: (0, 243, 24, 32, 46, 25, 20, 42, 43, 18, 61, 0)
s = 173: (0, 224, 26, 18, 76, 30, 19, 36, 83, 28, 134, 0)
s = 174: (0, 224, 36, 28, 54, 33, 18, 47, 88, 27, 88, 0)
s = 175: (0, 170, 28, 44, 45, 29, 30, 59, 48, 39, 115, 0)
s = 176: (0, 298, 31, 26, 47, 17, 22, 42, 89, 35, 94, 0)
s = 177: (0, 210, 29, 25, 39, 21, 13, 50, 46, 21, 103, 0)
s = 178: (0, 175, 25, 39, 40, 27, 28, 41, 57, 38, 58, 0)
s = 179: (0, 228, 31, 33, 93, 32, 27, 54, 47, 33, 56, 0)
s = 180: (0, 157, 22, 33, 73, 27, 23, 39, 54, 37, 64, 0)
s = 181: (0, 312, 31, 25, 42, 27, 25, 38, 51, 41, 127, 0)
s = 182: (0, 140, 32, 33, 86, 22, 30, 31, 69, 31, 103, 0)
s = 183: (0, 148, 33, 30, 54, 25, 17, 72, 69, 29, 72, 0)
s = 184: (0, 285, 33, 22, 55, 20, 17, 57, 59, 37, 100, 0)
s = 185: (0, 236, 37, 29, 52, 30, 30, 45, 58, 35, 91, 0)
s = 186: (0, 165, 22, 41, 44, 23, 21, 53, 62, 29, 93, 0)
s = 187: (0, 221, 19, 17, 32, 26, 31, 57, 80, 30, 94, 0)
s = 188: (0, 186, 20, 25, 47, 24, 20, 58, 74, 28, 85, 0)
s = 189: (0, 241, 24, 32, 46, 31, 15, 32, 71, 36, 70, 0)
s = 190: (0, 214, 36, 29, 62, 32, 33, 44, 88, 27, 122, 0)
s = 191: (0, 253, 26, 21, 54, 19, 22, 36, 60, 28, 95, 0)
s = 192: (0, 219, 42, 22, 68, 19, 34, 46, 44, 30, 130, 0)
s = 193: (0, 175, 27, 32, 47, 17, 29, 61, 73, 25, 90, 0)
s = 194: (0, 122, 36, 22, 62, 38, 30, 57, 82, 31, 64, 0)
s = 195: (0, 157, 36, 21, 40, 23, 17, 70, 43, 33, 63, 0)
s = 196: (0, 161, 45, 16, 54, 29, 20, 50, 54, 38, 75, 0)
s = 197: (0, 229, 26, 24, 32, 24, 18, 37, 83, 39, 98, 0)
s = 198: (0, 308, 34, 26, 57, 35, 28, 32, 66, 35, 61, 0)
s = 199: (0, 342, 25, 42, 60, 25, 40, 39, 88, 17, 55, 0)
s = 200: (0, 195, 32, 20, 66, 21, 31, 67, 51, 25, 101, 0)
************************************************************************
ES/LS-VALUES:
jobnr.   ES(i)    LS(i)
------------------------------------------------------------------------
  0        0        0
  1        0       52
  2        0       65
  3        0       67
  4       17       69
  5        1       69
  6        1       67
  7        1       67
  8        4       71
  9       22       75
 10        2       69
 11       23       77
************************************************************************
BIG-M-VALUES:
M1 = 32, M2 = 408
************************************************************************
